<number of tasks>
50

<cycle time>
1000

<order strength>
0.598


<task times>
1 180
2 68
3 108
4 85
5 66
6 132
7 93
8 139
9 97
10 97
11 29
12 30
13 203
14 158
15 299
16 115
17 293
18 101
19 105
20 225
21 104
22 333
23 293
24 158
25 239
26 45
27 187
28 179
29 126
30 79
31 121
32 238
33 26
34 145
35 45
36 131
37 262
38 155
39 120
40 147
41 33
42 37
43 229
44 205
45 197
46 374
47 58
48 34
49 200
50 74

<precedence relations>
1,4
2,3
2,5
2,6
3,7
4,8
5,8
5,9
5,10
5,11
5,12
6,8
6,9
6,10
6,11
6,12
7,13
8,14
8,15
8,16
9,14
9,15
9,16
10,14
11,15
12,20
12,31
13,17
14,18
14,19
14,20
14,21
14,22
14,26
15,20
15,31
16,20
16,21
16,22
16,26
17,26
18,24
19,25
20,23
20,27
21,27
21,30
21,31
22,31
22,32
22,33
23,28
24,29
25,30
26,30
26,31
27,32
27,33
27,37
28,34
29,36
30,37
30,40
31,35
31,37
32,40
32,43
33,41
34,40
35,39
36,40
37,38
37,41
37,42
37,43
37,47
38,45
39,46
40,44
40,47
43,48
43,50
44,49
45,50
46,50
47,50

<end>
